(set-info :smt-lib-version 2.6)
(set-logic QF_SLIA)
(set-info :source |
Generated by: Wei-Cheng Wu
Generated on: 2019-07-28
Generator: Py-Conbyte
Application: Concolic execution of Python code
Target solver: CVC4, Z3, Z3str3, Z3-Trau
|)
(set-info :license "https://creativecommons.org/licenses/by/4.0/")
(set-info :category "industrial")
(set-info :status unknown)
(declare-fun date_str () String)


(assert ( ite ( str.prefixof "-" ( str.substr ( str.substr date_str 0 ( - ( + ( str.len date_str  ) (- 6)  ) 0  )  ) ( + ( str.len ( str.substr date_str 0 ( - ( + ( str.len date_str  ) (- 6)  ) 0  )  )  ) (- 2)  ) ( - ( str.len ( str.substr date_str 0 ( - ( + ( str.len date_str  ) (- 6)  ) 0  )  )  ) ( + ( str.len ( str.substr date_str 0 ( - ( + ( str.len date_str  ) (- 6)  ) 0  )  )  ) (- 2)  )  )  )  ) ( and ( ite ( = (- 1) ( str.to_int ( str.substr ( str.substr ( str.substr date_str 0 ( - ( + ( str.len date_str  ) (- 6)  ) 0  )  ) ( + ( str.len ( str.substr date_str 0 ( - ( + ( str.len date_str  ) (- 6)  ) 0  )  )  ) (- 2)  ) ( - ( str.len ( str.substr date_str 0 ( - ( + ( str.len date_str  ) (- 6)  ) 0  )  )  ) ( + ( str.len ( str.substr date_str 0 ( - ( + ( str.len date_str  ) (- 6)  ) 0  )  )  ) (- 2)  )  )  ) 1 ( - ( str.len ( str.substr ( str.substr date_str 0 ( - ( + ( str.len date_str  ) (- 6)  ) 0  )  ) ( + ( str.len ( str.substr date_str 0 ( - ( + ( str.len date_str  ) (- 6)  ) 0  )  )  ) (- 2)  ) ( - ( str.len ( str.substr date_str 0 ( - ( + ( str.len date_str  ) (- 6)  ) 0  )  )  ) ( + ( str.len ( str.substr date_str 0 ( - ( + ( str.len date_str  ) (- 6)  ) 0  )  )  ) (- 2)  )  )  )  ) 1  )  )  )  ) false true  ) ( > ( str.len ( str.substr ( str.substr date_str 0 ( - ( + ( str.len date_str  ) (- 6)  ) 0  )  ) ( + ( str.len ( str.substr date_str 0 ( - ( + ( str.len date_str  ) (- 6)  ) 0  )  )  ) (- 2)  ) ( - ( str.len ( str.substr date_str 0 ( - ( + ( str.len date_str  ) (- 6)  ) 0  )  )  ) ( + ( str.len ( str.substr date_str 0 ( - ( + ( str.len date_str  ) (- 6)  ) 0  )  )  ) (- 2)  )  )  )  ) 1  )  ) ( ite ( = (- 1) ( str.to_int ( str.substr ( str.substr date_str 0 ( - ( + ( str.len date_str  ) (- 6)  ) 0  )  ) ( + ( str.len ( str.substr date_str 0 ( - ( + ( str.len date_str  ) (- 6)  ) 0  )  )  ) (- 2)  ) ( - ( str.len ( str.substr date_str 0 ( - ( + ( str.len date_str  ) (- 6)  ) 0  )  )  ) ( + ( str.len ( str.substr date_str 0 ( - ( + ( str.len date_str  ) (- 6)  ) 0  )  )  ) (- 2)  )  )  )  )  ) false true  )  ))

(assert ( ite ( str.prefixof "-" ( str.substr ( str.substr date_str 0 ( - ( + ( str.len date_str  ) (- 6)  ) 0  )  ) ( + ( str.len ( str.substr date_str 0 ( - ( + ( str.len date_str  ) (- 6)  ) 0  )  )  ) (- 4)  ) ( - ( + ( str.len ( str.substr date_str 0 ( - ( + ( str.len date_str  ) (- 6)  ) 0  )  )  ) (- 2)  ) ( + ( str.len ( str.substr date_str 0 ( - ( + ( str.len date_str  ) (- 6)  ) 0  )  )  ) (- 4)  )  )  )  ) ( and ( ite ( = (- 1) ( str.to_int ( str.substr ( str.substr ( str.substr date_str 0 ( - ( + ( str.len date_str  ) (- 6)  ) 0  )  ) ( + ( str.len ( str.substr date_str 0 ( - ( + ( str.len date_str  ) (- 6)  ) 0  )  )  ) (- 4)  ) ( - ( + ( str.len ( str.substr date_str 0 ( - ( + ( str.len date_str  ) (- 6)  ) 0  )  )  ) (- 2)  ) ( + ( str.len ( str.substr date_str 0 ( - ( + ( str.len date_str  ) (- 6)  ) 0  )  )  ) (- 4)  )  )  ) 1 ( - ( str.len ( str.substr ( str.substr date_str 0 ( - ( + ( str.len date_str  ) (- 6)  ) 0  )  ) ( + ( str.len ( str.substr date_str 0 ( - ( + ( str.len date_str  ) (- 6)  ) 0  )  )  ) (- 4)  ) ( - ( + ( str.len ( str.substr date_str 0 ( - ( + ( str.len date_str  ) (- 6)  ) 0  )  )  ) (- 2)  ) ( + ( str.len ( str.substr date_str 0 ( - ( + ( str.len date_str  ) (- 6)  ) 0  )  )  ) (- 4)  )  )  )  ) 1  )  )  )  ) false true  ) ( > ( str.len ( str.substr ( str.substr date_str 0 ( - ( + ( str.len date_str  ) (- 6)  ) 0  )  ) ( + ( str.len ( str.substr date_str 0 ( - ( + ( str.len date_str  ) (- 6)  ) 0  )  )  ) (- 4)  ) ( - ( + ( str.len ( str.substr date_str 0 ( - ( + ( str.len date_str  ) (- 6)  ) 0  )  )  ) (- 2)  ) ( + ( str.len ( str.substr date_str 0 ( - ( + ( str.len date_str  ) (- 6)  ) 0  )  )  ) (- 4)  )  )  )  ) 1  )  ) ( ite ( = (- 1) ( str.to_int ( str.substr ( str.substr date_str 0 ( - ( + ( str.len date_str  ) (- 6)  ) 0  )  ) ( + ( str.len ( str.substr date_str 0 ( - ( + ( str.len date_str  ) (- 6)  ) 0  )  )  ) (- 4)  ) ( - ( + ( str.len ( str.substr date_str 0 ( - ( + ( str.len date_str  ) (- 6)  ) 0  )  )  ) (- 2)  ) ( + ( str.len ( str.substr date_str 0 ( - ( + ( str.len date_str  ) (- 6)  ) 0  )  )  ) (- 4)  )  )  )  )  ) false true  )  ))

(assert ( ite ( str.prefixof "-" ( str.substr ( str.substr date_str 0 ( - ( + ( str.len date_str  ) (- 6)  ) 0  )  ) 0 ( - ( + ( str.len ( str.substr date_str 0 ( - ( + ( str.len date_str  ) (- 6)  ) 0  )  )  ) (- 4)  ) 0  )  )  ) ( and ( ite ( = (- 1) ( str.to_int ( str.substr ( str.substr ( str.substr date_str 0 ( - ( + ( str.len date_str  ) (- 6)  ) 0  )  ) 0 ( - ( + ( str.len ( str.substr date_str 0 ( - ( + ( str.len date_str  ) (- 6)  ) 0  )  )  ) (- 4)  ) 0  )  ) 1 ( - ( str.len ( str.substr ( str.substr date_str 0 ( - ( + ( str.len date_str  ) (- 6)  ) 0  )  ) 0 ( - ( + ( str.len ( str.substr date_str 0 ( - ( + ( str.len date_str  ) (- 6)  ) 0  )  )  ) (- 4)  ) 0  )  )  ) 1  )  )  )  ) false true  ) ( > ( str.len ( str.substr ( str.substr date_str 0 ( - ( + ( str.len date_str  ) (- 6)  ) 0  )  ) 0 ( - ( + ( str.len ( str.substr date_str 0 ( - ( + ( str.len date_str  ) (- 6)  ) 0  )  )  ) (- 4)  ) 0  )  )  ) 1  )  ) ( ite ( = (- 1) ( str.to_int ( str.substr ( str.substr date_str 0 ( - ( + ( str.len date_str  ) (- 6)  ) 0  )  ) 0 ( - ( + ( str.len ( str.substr date_str 0 ( - ( + ( str.len date_str  ) (- 6)  ) 0  )  )  ) (- 4)  ) 0  )  )  )  ) false true  )  ))

(assert ( ite ( str.prefixof "-" ( str.substr ( str.substr date_str ( + ( str.len date_str  ) (- 6)  ) ( - ( str.len date_str  ) ( + ( str.len date_str  ) (- 6)  )  )  ) 4 ( - ( str.len ( str.substr date_str ( + ( str.len date_str  ) (- 6)  ) ( - ( str.len date_str  ) ( + ( str.len date_str  ) (- 6)  )  )  )  ) 4  )  )  ) ( and ( ite ( = (- 1) ( str.to_int ( str.substr ( str.substr ( str.substr date_str ( + ( str.len date_str  ) (- 6)  ) ( - ( str.len date_str  ) ( + ( str.len date_str  ) (- 6)  )  )  ) 4 ( - ( str.len ( str.substr date_str ( + ( str.len date_str  ) (- 6)  ) ( - ( str.len date_str  ) ( + ( str.len date_str  ) (- 6)  )  )  )  ) 4  )  ) 1 ( - ( str.len ( str.substr ( str.substr date_str ( + ( str.len date_str  ) (- 6)  ) ( - ( str.len date_str  ) ( + ( str.len date_str  ) (- 6)  )  )  ) 4 ( - ( str.len ( str.substr date_str ( + ( str.len date_str  ) (- 6)  ) ( - ( str.len date_str  ) ( + ( str.len date_str  ) (- 6)  )  )  )  ) 4  )  )  ) 1  )  )  )  ) false true  ) ( > ( str.len ( str.substr ( str.substr date_str ( + ( str.len date_str  ) (- 6)  ) ( - ( str.len date_str  ) ( + ( str.len date_str  ) (- 6)  )  )  ) 4 ( - ( str.len ( str.substr date_str ( + ( str.len date_str  ) (- 6)  ) ( - ( str.len date_str  ) ( + ( str.len date_str  ) (- 6)  )  )  )  ) 4  )  )  ) 1  )  ) ( ite ( = (- 1) ( str.to_int ( str.substr ( str.substr date_str ( + ( str.len date_str  ) (- 6)  ) ( - ( str.len date_str  ) ( + ( str.len date_str  ) (- 6)  )  )  ) 4 ( - ( str.len ( str.substr date_str ( + ( str.len date_str  ) (- 6)  ) ( - ( str.len date_str  ) ( + ( str.len date_str  ) (- 6)  )  )  )  ) 4  )  )  )  ) false true  )  ))

(assert ( ite ( str.prefixof "-" ( str.substr ( str.substr date_str ( + ( str.len date_str  ) (- 6)  ) ( - ( str.len date_str  ) ( + ( str.len date_str  ) (- 6)  )  )  ) 2 ( - 4 2  )  )  ) ( and ( ite ( = (- 1) ( str.to_int ( str.substr ( str.substr ( str.substr date_str ( + ( str.len date_str  ) (- 6)  ) ( - ( str.len date_str  ) ( + ( str.len date_str  ) (- 6)  )  )  ) 2 ( - 4 2  )  ) 1 ( - ( str.len ( str.substr ( str.substr date_str ( + ( str.len date_str  ) (- 6)  ) ( - ( str.len date_str  ) ( + ( str.len date_str  ) (- 6)  )  )  ) 2 ( - 4 2  )  )  ) 1  )  )  )  ) false true  ) ( > ( str.len ( str.substr ( str.substr date_str ( + ( str.len date_str  ) (- 6)  ) ( - ( str.len date_str  ) ( + ( str.len date_str  ) (- 6)  )  )  ) 2 ( - 4 2  )  )  ) 1  )  ) ( ite ( = (- 1) ( str.to_int ( str.substr ( str.substr date_str ( + ( str.len date_str  ) (- 6)  ) ( - ( str.len date_str  ) ( + ( str.len date_str  ) (- 6)  )  )  ) 2 ( - 4 2  )  )  )  ) false true  )  ))

(assert ( ite ( str.prefixof "-" ( str.substr ( str.substr date_str ( + ( str.len date_str  ) (- 6)  ) ( - ( str.len date_str  ) ( + ( str.len date_str  ) (- 6)  )  )  ) 0 ( - 2 0  )  )  ) ( and ( ite ( = (- 1) ( str.to_int ( str.substr ( str.substr ( str.substr date_str ( + ( str.len date_str  ) (- 6)  ) ( - ( str.len date_str  ) ( + ( str.len date_str  ) (- 6)  )  )  ) 0 ( - 2 0  )  ) 1 ( - ( str.len ( str.substr ( str.substr date_str ( + ( str.len date_str  ) (- 6)  ) ( - ( str.len date_str  ) ( + ( str.len date_str  ) (- 6)  )  )  ) 0 ( - 2 0  )  )  ) 1  )  )  )  ) false true  ) ( > ( str.len ( str.substr ( str.substr date_str ( + ( str.len date_str  ) (- 6)  ) ( - ( str.len date_str  ) ( + ( str.len date_str  ) (- 6)  )  )  ) 0 ( - 2 0  )  )  ) 1  )  ) ( ite ( = (- 1) ( str.to_int ( str.substr ( str.substr date_str ( + ( str.len date_str  ) (- 6)  ) ( - ( str.len date_str  ) ( + ( str.len date_str  ) (- 6)  )  )  ) 0 ( - 2 0  )  )  )  ) false true  )  ))
(assert ( < ( ite ( str.prefixof "-" ( str.substr ( str.substr date_str 0 ( - ( + ( str.len date_str  ) (- 6)  ) 0  )  ) 0 ( - ( + ( str.len ( str.substr date_str 0 ( - ( + ( str.len date_str  ) (- 6)  ) 0  )  )  ) (- 4)  ) 0  )  )  ) ( - ( str.to_int ( str.substr ( str.substr ( str.substr date_str 0 ( - ( + ( str.len date_str  ) (- 6)  ) 0  )  ) 0 ( - ( + ( str.len ( str.substr date_str 0 ( - ( + ( str.len date_str  ) (- 6)  ) 0  )  )  ) (- 4)  ) 0  )  ) 1 ( - ( str.len ( str.substr ( str.substr date_str 0 ( - ( + ( str.len date_str  ) (- 6)  ) 0  )  ) 0 ( - ( + ( str.len ( str.substr date_str 0 ( - ( + ( str.len date_str  ) (- 6)  ) 0  )  )  ) (- 4)  ) 0  )  )  ) 1  )  )  )  ) ( str.to_int ( str.substr ( str.substr date_str 0 ( - ( + ( str.len date_str  ) (- 6)  ) 0  )  ) 0 ( - ( + ( str.len ( str.substr date_str 0 ( - ( + ( str.len date_str  ) (- 6)  ) 0  )  )  ) (- 4)  ) 0  )  )  )  ) 70  ))


(check-sat)

(exit)
